certificates/rado_a11_c279_N31.cnf
c Rad2 upper bound instance: x1 + 11*x2 - x3 = 279, interval [1,31]
p cnf 31 174
1 8 26 0
-1 -8 -26 0
1 19 27 0
-1 -19 -27 0
1 28 30 0
-1 -28 -30 0
2 9 26 0
-2 -9 -26 0
2 20 27 0
-2 -20 -27 0
2 28 31 0
-2 -28 -31 0
3 10 26 0
-3 -10 -26 0
3 21 27 0
-3 -21 -27 0
4 11 26 0
-4 -11 -26 0
4 22 27 0
-4 -22 -27 0
1 5 25 0
-1 -5 -25 0
5 12 26 0
-5 -12 -26 0
5 23 27 0
-5 -23 -27 0
2 6 25 0
-2 -6 -25 0
6 13 26 0
-6 -13 -26 0
6 24 27 0
-6 -24 -27 0
3 7 25 0
-3 -7 -25 0
7 14 26 0
-7 -14 -26 0
7 25 27 0
-7 -25 -27 0
4 8 25 0
-4 -8 -25 0
8 15 26 0
-8 -15 -26 0
8 26 27 0
-8 -26 -27 0
5 9 25 0
-5 -9 -25 0
9 16 26 0
-9 -16 -26 0
9 27 0
-9 -27 0
6 10 25 0
-6 -10 -25 0
10 17 26 0
-10 -17 -26 0
10 27 28 0
-10 -27 -28 0
7 11 25 0
-7 -11 -25 0
11 18 26 0
-11 -18 -26 0
11 27 29 0
-11 -27 -29 0
8 12 25 0
-8 -12 -25 0
12 19 26 0
-12 -19 -26 0
12 27 30 0
-12 -27 -30 0
9 13 25 0
-9 -13 -25 0
13 20 26 0
-13 -20 -26 0
13 27 31 0
-13 -27 -31 0
10 14 25 0
-10 -14 -25 0
14 21 26 0
-14 -21 -26 0
11 15 25 0
-11 -15 -25 0
15 22 26 0
-15 -22 -26 0
1 16 24 0
-1 -16 -24 0
12 16 25 0
-12 -16 -25 0
16 23 26 0
-16 -23 -26 0
2 17 24 0
-2 -17 -24 0
13 17 25 0
-13 -17 -25 0
17 24 26 0
-17 -24 -26 0
3 18 24 0
-3 -18 -24 0
14 18 25 0
-14 -18 -25 0
18 25 26 0
-18 -25 -26 0
4 19 24 0
-4 -19 -24 0
15 19 25 0
-15 -19 -25 0
19 26 0
-19 -26 0
5 20 24 0
-5 -20 -24 0
16 20 25 0
-16 -20 -25 0
20 26 27 0
-20 -26 -27 0
6 21 24 0
-6 -21 -24 0
17 21 25 0
-17 -21 -25 0
21 26 28 0
-21 -26 -28 0
7 22 24 0
-7 -22 -24 0
18 22 25 0
-18 -22 -25 0
22 26 29 0
-22 -26 -29 0
8 23 24 0
-8 -23 -24 0
19 23 25 0
-19 -23 -25 0
23 26 30 0
-23 -26 -30 0
9 24 0
-9 -24 0
20 24 25 0
-20 -24 -25 0
24 26 31 0
-24 -26 -31 0
10 24 25 0
-10 -24 -25 0
21 25 0
-21 -25 0
11 24 26 0
-11 -24 -26 0
22 25 26 0
-22 -25 -26 0
1 23 27 0
-1 -23 -27 0
12 24 27 0
-12 -24 -27 0
23 25 27 0
-23 -25 -27 0
2 23 28 0
-2 -23 -28 0
13 24 28 0
-13 -24 -28 0
24 25 28 0
-24 -25 -28 0
3 23 29 0
-3 -23 -29 0
14 24 29 0
-14 -24 -29 0
25 29 0
-25 -29 0
4 23 30 0
-4 -23 -30 0
15 24 30 0
-15 -24 -30 0
25 26 30 0
-25 -26 -30 0
5 23 31 0
-5 -23 -31 0
16 24 31 0
-16 -24 -31 0
25 27 31 0
-25 -27 -31 0
