certificates/rado_a11_c279_N31.drat
-28 25 -30 -31 0
-24 -31 0
28 24 0
-30 -31 0
d -28 25 -30 -31 0
-25 -31 0
-31 0
25 0
-21 0
-29 0
-27 0
9 0
13 0
3 0
11 0
-24 0
-5 0
0
